c File: flat50_3_0.col
c
c SOURCE: Joseph Culberson (joe@cs.ualberta.ca)
c DESCRIPTION: Quasi-random coloring problem
c              generated with flatness = 0
c                             probability = 0.139
c                             known coloring = 3
c                             random seed = 1566
c              Creation Date:  Tue Jun  9 12:12:25 1998
c Maximum degree = 8 Minimum degree = 1
c p edge 50 115
c cnf created by edge2cnf
p cnf 150 545
-1 -2 0
-1 -3 0
-2 -3 0
1 2 3 0
-4 -5 0
-4 -6 0
-5 -6 0
4 5 6 0
-7 -8 0
-7 -9 0
-8 -9 0
7 8 9 0
-10 -11 0
-10 -12 0
-11 -12 0
10 11 12 0
-13 -14 0
-13 -15 0
-14 -15 0
13 14 15 0
-16 -17 0
-16 -18 0
-17 -18 0
16 17 18 0
-19 -20 0
-19 -21 0
-20 -21 0
19 20 21 0
-22 -23 0
-22 -24 0
-23 -24 0
22 23 24 0
-25 -26 0
-25 -27 0
-26 -27 0
25 26 27 0
-28 -29 0
-28 -30 0
-29 -30 0
28 29 30 0
-31 -32 0
-31 -33 0
-32 -33 0
31 32 33 0
-34 -35 0
-34 -36 0
-35 -36 0
34 35 36 0
-37 -38 0
-37 -39 0
-38 -39 0
37 38 39 0
-40 -41 0
-40 -42 0
-41 -42 0
40 41 42 0
-43 -44 0
-43 -45 0
-44 -45 0
43 44 45 0
-46 -47 0
-46 -48 0
-47 -48 0
46 47 48 0
-49 -50 0
-49 -51 0
-50 -51 0
49 50 51 0
-52 -53 0
-52 -54 0
-53 -54 0
52 53 54 0
-55 -56 0
-55 -57 0
-56 -57 0
55 56 57 0
-58 -59 0
-58 -60 0
-59 -60 0
58 59 60 0
-61 -62 0
-61 -63 0
-62 -63 0
61 62 63 0
-64 -65 0
-64 -66 0
-65 -66 0
64 65 66 0
-67 -68 0
-67 -69 0
-68 -69 0
67 68 69 0
-70 -71 0
-70 -72 0
-71 -72 0
70 71 72 0
-73 -74 0
-73 -75 0
-74 -75 0
73 74 75 0
-76 -77 0
-76 -78 0
-77 -78 0
76 77 78 0
-79 -80 0
-79 -81 0
-80 -81 0
79 80 81 0
-82 -83 0
-82 -84 0
-83 -84 0
82 83 84 0
-85 -86 0
-85 -87 0
-86 -87 0
85 86 87 0
-88 -89 0
-88 -90 0
-89 -90 0
88 89 90 0
-91 -92 0
-91 -93 0
-92 -93 0
91 92 93 0
-94 -95 0
-94 -96 0
-95 -96 0
94 95 96 0
-97 -98 0
-97 -99 0
-98 -99 0
97 98 99 0
-100 -101 0
-100 -102 0
-101 -102 0
100 101 102 0
-103 -104 0
-103 -105 0
-104 -105 0
103 104 105 0
-106 -107 0
-106 -108 0
-107 -108 0
106 107 108 0
-109 -110 0
-109 -111 0
-110 -111 0
109 110 111 0
-112 -113 0
-112 -114 0
-113 -114 0
112 113 114 0
-115 -116 0
-115 -117 0
-116 -117 0
115 116 117 0
-118 -119 0
-118 -120 0
-119 -120 0
118 119 120 0
-121 -122 0
-121 -123 0
-122 -123 0
121 122 123 0
-124 -125 0
-124 -126 0
-125 -126 0
124 125 126 0
-127 -128 0
-127 -129 0
-128 -129 0
127 128 129 0
-130 -131 0
-130 -132 0
-131 -132 0
130 131 132 0
-133 -134 0
-133 -135 0
-134 -135 0
133 134 135 0
-136 -137 0
-136 -138 0
-137 -138 0
136 137 138 0
-139 -140 0
-139 -141 0
-140 -141 0
139 140 141 0
-142 -143 0
-142 -144 0
-143 -144 0
142 143 144 0
-145 -146 0
-145 -147 0
-146 -147 0
145 146 147 0
-148 -149 0
-148 -150 0
-149 -150 0
148 149 150 0
-88 -1 0
-89 -2 0
-90 -3 0
-67 -4 0
-68 -5 0
-69 -6 0
-79 -4 0
-80 -5 0
-81 -6 0
-85 -4 0
-86 -5 0
-87 -6 0
-100 -4 0
-101 -5 0
-102 -6 0
-142 -4 0
-143 -5 0
-144 -6 0
-55 -7 0
-56 -8 0
-57 -9 0
-67 -7 0
-68 -8 0
-69 -9 0
-79 -7 0
-80 -8 0
-81 -9 0
-97 -7 0
-98 -8 0
-99 -9 0
-115 -7 0
-116 -8 0
-117 -9 0
-136 -7 0
-137 -8 0
-138 -9 0
-61 -10 0
-62 -11 0
-63 -12 0
-103 -10 0
-104 -11 0
-105 -12 0
-109 -10 0
-110 -11 0
-111 -12 0
-112 -10 0
-113 -11 0
-114 -12 0
-148 -10 0
-149 -11 0
-150 -12 0
-70 -13 0
-71 -14 0
-72 -15 0
-73 -13 0
-74 -14 0
-75 -15 0
-82 -13 0
-83 -14 0
-84 -15 0
-94 -13 0
-95 -14 0
-96 -15 0
-106 -13 0
-107 -14 0
-108 -15 0
-139 -13 0
-140 -14 0
-141 -15 0
-142 -13 0
-143 -14 0
-144 -15 0
-70 -16 0
-71 -17 0
-72 -18 0
-85 -16 0
-86 -17 0
-87 -18 0
-88 -16 0
-89 -17 0
-90 -18 0
-145 -16 0
-146 -17 0
-147 -18 0
-76 -19 0
-77 -20 0
-78 -21 0
-82 -19 0
-83 -20 0
-84 -21 0
-85 -19 0
-86 -20 0
-87 -21 0
-130 -19 0
-131 -20 0
-132 -21 0
-133 -22 0
-134 -23 0
-135 -24 0
-55 -25 0
-56 -26 0
-57 -27 0
-67 -25 0
-68 -26 0
-69 -27 0
-76 -25 0
-77 -26 0
-78 -27 0
-100 -25 0
-101 -26 0
-102 -27 0
-139 -25 0
-140 -26 0
-141 -27 0
-145 -25 0
-146 -26 0
-147 -27 0
-109 -28 0
-110 -29 0
-111 -30 0
-112 -28 0
-113 -29 0
-114 -30 0
-130 -28 0
-131 -29 0
-132 -30 0
-136 -28 0
-137 -29 0
-138 -30 0
-55 -31 0
-56 -32 0
-57 -33 0
-58 -31 0
-59 -32 0
-60 -33 0
-76 -31 0
-77 -32 0
-78 -33 0
-85 -31 0
-86 -32 0
-87 -33 0
-109 -31 0
-110 -32 0
-111 -33 0
-124 -31 0
-125 -32 0
-126 -33 0
-127 -31 0
-128 -32 0
-129 -33 0
-130 -31 0
-131 -32 0
-132 -33 0
-61 -34 0
-62 -35 0
-63 -36 0
-70 -34 0
-71 -35 0
-72 -36 0
-73 -34 0
-74 -35 0
-75 -36 0
-82 -34 0
-83 -35 0
-84 -36 0
-118 -34 0
-119 -35 0
-120 -36 0
-121 -34 0
-122 -35 0
-123 -36 0
-124 -34 0
-125 -35 0
-126 -36 0
-127 -34 0
-128 -35 0
-129 -36 0
-94 -37 0
-95 -38 0
-96 -39 0
-127 -37 0
-128 -38 0
-129 -39 0
-67 -40 0
-68 -41 0
-69 -42 0
-136 -40 0
-137 -41 0
-138 -42 0
-139 -40 0
-140 -41 0
-141 -42 0
-88 -43 0
-89 -44 0
-90 -45 0
-94 -43 0
-95 -44 0
-96 -45 0
-103 -43 0
-104 -44 0
-105 -45 0
-106 -43 0
-107 -44 0
-108 -45 0
-136 -43 0
-137 -44 0
-138 -45 0
-145 -43 0
-146 -44 0
-147 -45 0
-109 -46 0
-110 -47 0
-111 -48 0
-118 -46 0
-119 -47 0
-120 -48 0
-55 -49 0
-56 -50 0
-57 -51 0
-58 -49 0
-59 -50 0
-60 -51 0
-70 -49 0
-71 -50 0
-72 -51 0
-100 -49 0
-101 -50 0
-102 -51 0
-118 -49 0
-119 -50 0
-120 -51 0
-148 -49 0
-149 -50 0
-150 -51 0
-139 -52 0
-140 -53 0
-141 -54 0
-130 -55 0
-131 -56 0
-132 -57 0
-118 -58 0
-119 -59 0
-120 -60 0
-121 -58 0
-122 -59 0
-123 -60 0
-130 -58 0
-131 -59 0
-132 -60 0
-148 -58 0
-149 -59 0
-150 -60 0
-109 -61 0
-110 -62 0
-111 -63 0
-106 -64 0
-107 -65 0
-108 -66 0
-112 -64 0
-113 -65 0
-114 -66 0
-148 -64 0
-149 -65 0
-150 -66 0
-106 -67 0
-107 -68 0
-108 -69 0
-115 -67 0
-116 -68 0
-117 -69 0
-127 -67 0
-128 -68 0
-129 -69 0
-142 -67 0
-143 -68 0
-144 -69 0
-109 -70 0
-110 -71 0
-111 -72 0
-133 -70 0
-134 -71 0
-135 -72 0
-118 -73 0
-119 -74 0
-120 -75 0
-142 -73 0
-143 -74 0
-144 -75 0
-145 -73 0
-146 -74 0
-147 -75 0
-118 -76 0
-119 -77 0
-120 -78 0
-139 -76 0
-140 -77 0
-141 -78 0
-142 -76 0
-143 -77 0
-144 -78 0
-103 -79 0
-104 -80 0
-105 -81 0
-109 -79 0
-110 -80 0
-111 -81 0
-124 -79 0
-125 -80 0
-126 -81 0
-106 -82 0
-107 -83 0
-108 -84 0
-136 -82 0
-137 -83 0
-138 -84 0
-103 -85 0
-104 -86 0
-105 -87 0
-124 -85 0
-125 -86 0
-126 -87 0
-115 -88 0
-116 -89 0
-117 -90 0
-115 -91 0
-116 -92 0
-117 -93 0
-124 -91 0
-125 -92 0
-126 -93 0
-130 -94 0
-131 -95 0
-132 -96 0
-109 -97 0
-110 -98 0
-111 -99 0
-112 -97 0
-113 -98 0
-114 -99 0
-121 -97 0
-122 -98 0
-123 -99 0
-127 -100 0
-128 -101 0
-129 -102 0
